c CNF file corresponding to a (partial) station packing problem.
p cnf 2062 229
1 2 3 4 5 6 7 8 9 10 11 12 13 14 0
-1 -2 0
-1 -3 0
-1 -4 0
-1 -5 0
-1 -6 0
-1 -7 0
-1 -8 0
-1 -9 0
-1 -10 0
-1 -11 0
-1 -12 0
-1 -13 0
-1 -14 0
-2 -3 0
-2 -4 0
-2 -5 0
-2 -6 0
-2 -7 0
-2 -8 0
-2 -9 0
-2 -10 0
-2 -11 0
-2 -12 0
-2 -13 0
-2 -14 0
-3 -4 0
-3 -5 0
-3 -6 0
-3 -7 0
-3 -8 0
-3 -9 0
-3 -10 0
-3 -11 0
-3 -12 0
-3 -13 0
-3 -14 0
-4 -5 0
-4 -6 0
-4 -7 0
-4 -8 0
-4 -9 0
-4 -10 0
-4 -11 0
-4 -12 0
-4 -13 0
-4 -14 0
-5 -6 0
-5 -7 0
-5 -8 0
-5 -9 0
-5 -10 0
-5 -11 0
-5 -12 0
-5 -13 0
-5 -14 0
-6 -7 0
-6 -8 0
-6 -9 0
-6 -10 0
-6 -11 0
-6 -12 0
-6 -13 0
-6 -14 0
-7 -8 0
-7 -9 0
-7 -10 0
-7 -11 0
-7 -12 0
-7 -13 0
-7 -14 0
-8 -9 0
-8 -10 0
-8 -11 0
-8 -12 0
-8 -13 0
-8 -14 0
-9 -10 0
-9 -11 0
-9 -12 0
-9 -13 0
-9 -14 0
-10 -11 0
-10 -12 0
-10 -13 0
-10 -14 0
-11 -12 0
-11 -13 0
-11 -14 0
-12 -13 0
-12 -14 0
-13 -14 0
2046 2047 2048 2049 2050 2051 2052 2053 2054 2055 2056 2057 2058 2059 2060 2061 2062 0
-2046 -2047 0
-2046 -2048 0
-2046 -2049 0
-2046 -2050 0
-2046 -2051 0
-2046 -2052 0
-2046 -2053 0
-2046 -2054 0
-2046 -2055 0
-2046 -2056 0
-2046 -2057 0
-2046 -2058 0
-2046 -2059 0
-2046 -2060 0
-2046 -2061 0
-2046 -2062 0
-2047 -2048 0
-2047 -2049 0
-2047 -2050 0
-2047 -2051 0
-2047 -2052 0
-2047 -2053 0
-2047 -2054 0
-2047 -2055 0
-2047 -2056 0
-2047 -2057 0
-2047 -2058 0
-2047 -2059 0
-2047 -2060 0
-2047 -2061 0
-2047 -2062 0
-2048 -2049 0
-2048 -2050 0
-2048 -2051 0
-2048 -2052 0
-2048 -2053 0
-2048 -2054 0
-2048 -2055 0
-2048 -2056 0
-2048 -2057 0
-2048 -2058 0
-2048 -2059 0
-2048 -2060 0
-2048 -2061 0
-2048 -2062 0
-2049 -2050 0
-2049 -2051 0
-2049 -2052 0
-2049 -2053 0
-2049 -2054 0
-2049 -2055 0
-2049 -2056 0
-2049 -2057 0
-2049 -2058 0
-2049 -2059 0
-2049 -2060 0
-2049 -2061 0
-2049 -2062 0
-2050 -2051 0
-2050 -2052 0
-2050 -2053 0
-2050 -2054 0
-2050 -2055 0
-2050 -2056 0
-2050 -2057 0
-2050 -2058 0
-2050 -2059 0
-2050 -2060 0
-2050 -2061 0
-2050 -2062 0
-2051 -2052 0
-2051 -2053 0
-2051 -2054 0
-2051 -2055 0
-2051 -2056 0
-2051 -2057 0
-2051 -2058 0
-2051 -2059 0
-2051 -2060 0
-2051 -2061 0
-2051 -2062 0
-2052 -2053 0
-2052 -2054 0
-2052 -2055 0
-2052 -2056 0
-2052 -2057 0
-2052 -2058 0
-2052 -2059 0
-2052 -2060 0
-2052 -2061 0
-2052 -2062 0
-2053 -2054 0
-2053 -2055 0
-2053 -2056 0
-2053 -2057 0
-2053 -2058 0
-2053 -2059 0
-2053 -2060 0
-2053 -2061 0
-2053 -2062 0
-2054 -2055 0
-2054 -2056 0
-2054 -2057 0
-2054 -2058 0
-2054 -2059 0
-2054 -2060 0
-2054 -2061 0
-2054 -2062 0
-2055 -2056 0
-2055 -2057 0
-2055 -2058 0
-2055 -2059 0
-2055 -2060 0
-2055 -2061 0
-2055 -2062 0
-2056 -2057 0
-2056 -2058 0
-2056 -2059 0
-2056 -2060 0
-2056 -2061 0
-2056 -2062 0
-2057 -2058 0
-2057 -2059 0
-2057 -2060 0
-2057 -2061 0
-2057 -2062 0
-2058 -2059 0
-2058 -2060 0
-2058 -2061 0
-2058 -2062 0
-2059 -2060 0
-2059 -2061 0
-2059 -2062 0
-2060 -2061 0
-2060 -2062 0
-2061 -2062 0
